c preprocessed version of 1rb9_graph, 48 vertices, 412 edges
p td 48 412
46 47
45 47
45 46
44 47
44 46
44 45
43 45
43 44
42 45
42 44
42 43
41 46
41 45
41 44
41 43
41 42
40 44
40 43
40 42
40 41
39 45
39 44
39 43
39 42
39 41
39 40
38 40
38 39
37 44
37 39
37 38
36 44
36 41
36 38
36 37
35 44
35 43
35 42
35 41
35 40
35 39
35 38
35 36
34 44
34 41
34 40
34 37
34 36
34 35
33 42
33 41
33 40
33 36
33 35
33 34
32 42
32 41
32 40
32 35
32 34
32 33
31 41
31 36
31 35
31 34
31 33
31 32
30 44
30 42
30 41
30 40
30 36
30 35
30 34
30 33
30 32
30 31
29 41
29 34
29 32
29 31
29 30
28 46
28 44
28 41
28 34
28 32
28 30
28 29
27 47
27 46
27 45
27 44
27 42
27 41
27 36
27 34
27 30
27 29
27 28
26 46
26 34
26 30
26 29
26 28
26 27
25 44
25 41
25 36
25 34
25 31
25 30
25 29
25 28
25 27
25 26
24 29
24 26
24 25
23 25
23 24
22 31
22 30
22 29
22 25
22 24
22 23
21 44
21 41
21 36
21 35
21 34
21 33
21 31
21 30
21 29
21 28
21 27
21 26
21 25
21 24
21 23
21 22
20 36
20 34
20 33
20 31
20 30
20 25
20 22
20 21
19 44
19 41
19 38
19 37
19 36
19 35
19 34
19 33
19 31
19 30
19 27
19 25
19 21
19 20
18 37
18 36
18 35
18 34
18 30
18 21
18 20
18 19
17 36
17 23
17 22
17 21
17 20
17 19
17 18
16 44
16 41
16 37
16 36
16 35
16 34
16 33
16 31
16 30
16 29
16 27
16 25
16 23
16 22
16 21
16 20
16 19
16 18
16 17
15 36
15 34
15 31
15 30
15 29
15 27
15 26
15 25
15 24
15 23
15 22
15 21
15 20
15 19
15 18
15 17
15 16
14 37
14 36
14 24
14 23
14 21
14 19
14 18
14 17
14 16
14 15
13 26
13 24
13 23
13 15
13 14
12 46
12 44
12 41
12 30
12 29
12 28
12 27
12 26
12 25
12 24
12 23
12 21
12 16
12 15
12 14
12 13
11 47
11 44
11 36
11 30
11 27
11 23
11 21
11 16
11 15
11 14
11 13
11 12
10 47
10 46
10 44
10 43
10 41
10 39
10 37
10 36
10 35
10 34
10 31
10 30
10 29
10 28
10 27
10 26
10 25
10 21
10 19
10 18
10 16
10 15
10 14
10 12
10 11
9 47
9 46
9 45
9 44
9 37
9 36
9 27
9 16
9 14
9 13
9 11
9 10
8 47
8 44
8 41
8 37
8 36
8 35
8 34
8 30
8 27
8 21
8 19
8 18
8 16
8 14
8 11
8 10
8 9
7 47
7 45
7 37
7 9
7 8
6 45
6 44
6 43
6 42
6 40
6 39
6 38
6 37
6 8
6 7
5 47
5 46
5 45
5 44
5 43
5 42
5 39
5 10
5 9
5 7
5 6
4 47
4 46
4 45
4 44
4 27
4 11
4 10
4 9
4 8
4 7
4 5
3 47
3 46
3 45
3 44
3 43
3 41
3 36
3 34
3 30
3 28
3 27
3 26
3 25
3 21
3 19
3 16
3 12
3 11
3 10
3 9
3 8
3 5
3 4
2 47
2 46
2 44
2 27
2 14
2 13
2 12
2 11
2 10
2 9
2 8
2 4
2 3
1 47
1 46
1 45
1 44
1 28
1 27
1 26
1 12
1 11
1 10
1 9
1 4
1 3
1 2
0 46
0 28
0 27
0 26
0 24
0 23
0 14
0 13
0 12
0 11
0 2
0 1
